(declare-const s Int)
(declare-const |tmp___0'| Int)
(declare-const |tmp'| Int)
(declare-const tmp___0 Int)
(declare-const tmp Int)
(declare-const term_to_project_onto1 Real)
(declare-const |s'| Int)
(declare-const havoc0 Int)
(declare-const havoc Int)
(declare-const term_to_project_onto Real)
(declare-const term_to_project_onto0 Real)
(declare-const phi_s Int)
(assert (and (= s 0) (= s 0) (<= (- havoc) 0)
               (or (<= (+ havoc 1) 0) (<= (+ (- havoc) 1) 0))
               (or (and (<= (- s) 0) (<= s 0) (= (+ (- phi_s) s) 0))
                     (and (or (<= (+ s 1) 0) (<= (+ (- s) 1) 0))
                            (= (+ (- phi_s) s 1) 0))) (<= (- havoc0) 0)
               (or (= havoc0 0)
                     (and (or (<= (+ havoc0 1) 0) (<= (+ (- havoc0) 1) 0))
                            (= phi_s 0))) (= (+ |tmp___0'| (- havoc)) 0)
               (= (+ |tmp'| (- havoc0)) 0) (= (+ |s'| (- phi_s)) 0)
               (= term_to_project_onto1 (+ |s'| (- s)))
               (= term_to_project_onto0 (+ |tmp'| (- tmp)))
               (= term_to_project_onto (+ |tmp___0'| (- tmp___0)))))
(check-sat)
